c Random 6-CNF over 30 variables and 180 clauses
c Generated with `cnfgen`
c (C) 2012-2016 Massimo Lauria <lauria.massimo@gmail.com>
c https://massimolauria.github.io/cnfgen
c
c COMMAND LINE: cnfgen --output tmp-6-30-180.dimacs --output-format dimacs randkcnf 6 30 180
c
c sdimacs generated by gen-sdimacs
c
p cnf 30 180
r 0.5 1 2 3 4 5 6 7 8 9 10 11 12 13 14 15 0
e  16 17 18 19 20 21 22 23 24 25 26 27 28 29 30 0
-2 3 5 -7 -8 -19 0
4 -7 -8 12 -20 -22 0
5 7 -15 -16 22 27 0
-8 -11 17 19 23 27 0
4 -18 -19 -21 -23 27 0
-10 -12 13 -20 -24 26 0
-16 18 23 -25 -26 29 0
-7 13 16 -17 -22 24 0
-1 2 -5 10 -13 22 0
-5 7 10 -13 -27 29 0
-1 -11 -12 19 28 29 0
1 2 6 23 26 29 0
1 -2 3 11 14 -15 0
-3 5 9 -15 26 27 0
-1 4 5 9 22 -26 0
-3 -4 -7 8 16 -26 0
-2 -7 13 -15 28 29 0
2 -5 6 -7 10 -14 0
-1 10 -21 -25 27 -28 0
2 -4 5 -7 -15 20 0
-13 -18 19 20 -27 29 0
1 9 14 -16 22 -30 0
-6 -14 22 -26 28 29 0
8 16 -17 18 25 28 0
3 -4 14 -15 -19 29 0
-5 -8 -13 15 -23 28 0
-1 3 -6 9 16 -25 0
1 9 -10 11 14 -21 0
-1 10 -15 16 18 -24 0
-3 -11 -16 -17 19 -29 0
2 -4 -6 -24 26 -29 0
7 10 18 -20 -22 -30 0
11 -12 17 21 23 25 0
14 16 -17 19 -20 28 0
-11 14 17 19 20 22 0
-9 16 -24 25 -29 30 0
-9 -15 -24 25 28 -30 0
-3 -4 6 8 -15 -28 0
-3 9 11 12 13 -21 0
12 -17 -18 25 27 -28 0
-9 -10 -17 18 -20 23 0
3 4 -5 13 23 -30 0
-1 -7 -21 26 27 -28 0
-10 -11 12 15 22 26 0
8 -10 -14 16 28 -29 0
1 -7 -15 22 26 27 0
-3 -11 15 23 28 -30 0
3 5 6 15 18 -30 0
3 5 -7 16 -26 -29 0
10 11 -15 16 19 -21 0
9 -14 19 -20 -26 -30 0
-9 -13 -15 -16 18 21 0
-8 -14 -15 20 22 26 0
-17 18 23 -25 28 30 0
-1 -5 7 8 14 -22 0
-2 -4 6 9 16 -21 0
-1 -2 -5 21 22 26 0
-4 7 14 -20 -21 25 0
-5 9 15 -23 -24 -30 0
-4 10 12 24 25 -27 0
-9 -12 17 -21 28 -29 0
11 12 -16 -19 -25 28 0
-5 -12 -14 -16 -20 22 0
2 10 -13 20 -27 30 0
-4 7 -9 12 -19 -28 0
2 -6 11 20 27 -28 0
2 9 10 -16 23 -25 0
-3 6 9 12 -26 30 0
-2 -6 9 -16 20 29 0
-2 -6 -10 -16 -17 20 0
2 -4 -5 17 -22 -23 0
-11 -15 -18 19 20 29 0
-3 4 -12 -15 -17 22 0
1 -3 -4 -6 -15 -24 0
-4 -5 -6 -16 -20 27 0
3 -7 -13 15 -17 -25 0
1 -7 11 -13 23 -29 0
2 8 15 17 18 28 0
-5 8 -11 -20 -26 -27 0
5 7 9 -10 -11 -29 0
-8 17 23 -25 -26 -29 0
3 6 -12 -18 24 28 0
-5 -11 18 -22 -23 26 0
1 -7 -11 13 16 22 0
1 10 17 -26 27 28 0
4 -9 18 -22 -26 27 0
-2 -9 -18 22 24 25 0
-10 -19 20 23 -25 29 0
-1 9 10 -11 18 28 0
1 -6 21 22 -25 -29 0
6 12 -14 -23 26 -27 0
2 -7 8 -9 12 -15 0
-6 -13 -14 -15 -24 25 0
-13 -14 15 -16 -18 -21 0
-6 8 15 16 -19 -23 0
2 -5 -10 13 -23 -26 0
1 -6 12 13 15 -20 0
9 18 -22 24 -28 -30 0
1 -8 -10 19 24 28 0
2 3 -11 20 25 -26 0
-4 8 12 20 -22 -29 0
2 -3 4 9 10 -27 0
-1 3 7 8 -12 -17 0
-4 -7 17 21 23 26 0
1 11 -18 21 -23 28 0
-5 7 -14 15 -19 -28 0
10 14 -17 27 -28 -29 0
2 4 -18 20 25 28 0
8 12 15 -20 25 -30 0
-3 15 -20 23 -25 26 0
3 -5 -6 -13 27 -28 0
-7 -13 23 24 29 -30 0
-1 5 6 8 13 16 0
2 3 -13 15 -25 -27 0
-2 8 15 -17 -21 30 0
9 -10 12 15 18 -28 0
-12 13 -19 20 21 -24 0
1 -6 -13 22 -25 -28 0
-11 12 14 25 28 30 0
2 -5 8 -10 12 13 0
-2 -4 5 -13 26 27 0
3 -10 -12 23 -24 -25 0
-9 10 -12 -22 -28 -29 0
2 -7 -20 26 -27 30 0
4 -6 -7 -8 14 15 0
-1 3 -7 8 -10 -30 0
1 3 -9 -11 12 -17 0
1 9 16 18 -19 -30 0
-3 -19 -21 -23 24 -25 0
2 -6 11 -12 -24 25 0
1 16 -20 -22 29 30 0
1 4 14 15 -25 29 0
-11 14 -15 18 -23 -24 0
-1 -6 7 -18 -25 -28 0
2 -3 -5 -8 -10 -22 0
-9 -11 14 18 19 -26 0
1 -3 10 -11 22 -28 0
4 10 11 13 14 23 0
6 -12 19 -22 24 30 0
-2 -6 -10 -13 14 -21 0
2 4 -16 -18 19 -30 0
1 4 20 25 29 30 0
-1 -5 6 -7 12 -28 0
9 12 15 -19 22 27 0
1 -7 10 -14 -17 -26 0
1 6 -15 -26 -28 29 0
-1 2 -17 -18 -27 -30 0
3 9 11 -21 23 -26 0
4 -8 -9 -11 18 -19 0
5 6 -9 -11 14 20 0
4 6 -8 -12 -21 -30 0
2 -7 9 -17 -20 28 0
1 8 13 -17 21 -26 0
4 9 16 19 20 -22 0
-1 13 17 22 -25 -28 0
4 12 -16 -19 23 -25 0
-3 -9 10 11 -13 -27 0
-1 4 -8 -14 -16 21 0
6 -10 -13 -21 -26 -29 0
-9 -12 13 -16 -22 23 0
-1 -3 6 -8 -12 20 0
-3 -4 8 -14 -21 26 0
-2 -7 10 -14 21 -30 0
-4 10 -16 -18 -21 -26 0
-4 -9 14 16 17 19 0
13 14 16 17 20 -22 0
4 10 -17 -19 -26 27 0
5 16 -18 19 23 28 0
-8 13 -22 28 -29 30 0
6 11 12 17 -26 -27 0
-2 -3 10 15 26 -29 0
6 -11 20 25 -28 30 0
-1 -3 4 -9 26 -29 0
1 -5 14 -17 -23 -28 0
3 -5 -21 -26 -28 -29 0
2 16 -17 18 -24 27 0
-8 -16 -17 18 -22 29 0
-4 -5 14 -16 21 -26 0
-3 12 -18 -19 20 -24 0
-3 -5 11 19 26 -29 0
